100
120
84
82
81
81
80
80
79
78
77
76
76
76
73
73
71
68
68
68
67
66
64
64
64
63
62
62
61
60
60
60
59
59
58
58
57
57
57
57
56
56
56
55
55
54
54
52
50
50
49
49
49
49
49
48
47
47
47
46
46
45
45
41
41
41
39
38
38
38
36
36
36
33
32
32
31
28
26
26
26
26
26
26
25
25
23
22
21
21
20
20
19
19
19
19
16
16
16
15
12
12
